n = 10;
K = 3;
L = 300;
capacity = array1d(0..2,[5, 7, 12]);
max_r_time = array1d(0..2,[300, 300, 300]);
load = array1d(0..21,[0, 2, 2, 5, 5, 5, 1, 3, 1, 2, 4, -2, -2, -5, -5, -5, -1, -3, -1, -2, -4, 0]);
service_time = array1d(0..21,[0, 5, 5, 5, 5, 5, 5, 5, 5, 5, 5, 5, 5, 5, 5, 5, 5, 5, 5, 5, 5, 0]);
earliest_pickup = array1d(0..21,[0, 139, 41, 276, 180, 37, 401, 479, 33, 277, 121, 139, 41, 276, 180, 37, 401, 479, 33, 277, 121, 0]);
latest_dropoff = array1d(0..21,[1440, 200, 105, 337, 243, 99, 461, 543, 95, 341, 183, 200, 105, 337, 243, 99, 461, 543, 95, 341, 183, 1440]);
t_time = array2d(0..21,0..21,[0, 2, 3, 1, 1, 1, 2, 2, 3, 2, 2, 3, 2, 1, 2, 1, 2, 2, 2, 2, 1, 0, 2, 0, 1, 2, 3, 2, 1, 2, 1, 5, 3, 1, 3, 3, 1, 3, 1, 3, 1, 3, 1, 2, 3, 1, 0, 3, 4, 2, 1, 3, 1, 5, 3, 1, 4, 4, 1, 4, 1, 2, 2, 4, 2, 3, 1, 2, 3, 0, 1, 2, 2, 1, 3, 3, 3, 3, 1, 1, 2, 1, 2, 3, 1, 1, 1, 1, 1, 3, 4, 1, 0, 2, 3, 1, 4, 3, 3, 4, 1, 1, 3, 0, 3, 4, 2, 1, 2, 1, 1, 2, 2, 2, 2, 0, 1, 3, 2, 3, 1, 2, 3, 2, 1, 2, 1, 1, 3, 3, 1, 1, 2, 1, 1, 2, 3, 1, 0, 2, 1, 4, 2, 1, 3, 3, 0, 3, 0, 2, 2, 3, 1, 2, 2, 2, 3, 1, 1, 3, 2, 0, 3, 4, 4, 3, 1, 2, 2, 1, 2, 4, 1, 1, 2, 2, 3, 1, 1, 3, 4, 2, 1, 3, 0, 5, 4, 0, 4, 4, 1, 4, 1, 3, 2, 4, 2, 3, 2, 5, 5, 3, 3, 3, 4, 4, 5, 0, 2, 5, 4, 2, 4, 3, 4, 4, 5, 4, 3, 2, 2, 3, 3, 3, 3, 1, 2, 4, 4, 2, 0, 4, 4, 2, 2, 3, 2, 2, 4, 4, 2, 2, 3, 1, 1, 3, 4, 2, 1, 3, 0, 5, 4, 0, 4, 4, 1, 4, 1, 3, 2, 4, 2, 3, 2, 3, 4, 1, 1, 3, 3, 1, 4, 4, 4, 4, 0, 2, 3, 1, 3, 5, 2, 0, 2, 2, 1, 3, 4, 1, 1, 2, 3, 2, 4, 2, 2, 4, 2, 0, 3, 1, 3, 3, 2, 2, 2, 1, 2, 1, 1, 2, 3, 1, 0, 2, 1, 4, 2, 1, 3, 3, 0, 3, 0, 2, 2, 3, 1, 2, 1, 3, 4, 1, 0, 2, 3, 1, 4, 3, 3, 4, 1, 1, 3, 0, 3, 4, 2, 1, 2, 1, 2, 1, 1, 2, 3, 1, 0, 2, 1, 4, 2, 1, 3, 3, 0, 3, 0, 2, 2, 3, 1, 2, 2, 3, 2, 3, 4, 1, 2, 4, 3, 4, 2, 3, 5, 3, 2, 4, 2, 0, 4, 5, 2, 2, 2, 1, 2, 1, 2, 3, 2, 1, 2, 5, 4, 2, 2, 2, 2, 2, 2, 4, 0, 2, 2, 2, 2, 3, 4, 1, 1, 3, 3, 1, 4, 4, 4, 4, 0, 2, 3, 1, 3, 5, 2, 0, 2, 2, 1, 1, 2, 1, 2, 1, 1, 2, 2, 3, 2, 2, 2, 2, 1, 2, 1, 2, 2, 2, 0, 1, 0, 2, 3, 1, 1, 1, 2, 2, 3, 2, 2, 3, 2, 1, 2, 1, 2, 2, 2, 2, 1, 0]);
t_cost = array3d(0..21,0..21,0..2,[0, 121, 182, 60, 60, 60, 121, 121, 182, 121, 121, 182, 121, 60, 121, 60, 121, 121, 121, 121, 60, 0, 121, 0, 60, 121, 182, 121, 60, 121, 60, 304, 182, 60, 182, 182, 60, 182, 60, 182, 60, 182, 60, 121, 182, 60, 0, 182, 243, 121, 60, 182, 60, 304, 182, 60, 243, 243, 60, 243, 60, 121, 121, 243, 121, 182, 60, 121, 182, 0, 60, 121, 121, 60, 182, 182, 182, 182, 60, 60, 121, 60, 121, 182, 60, 60, 60, 60, 60, 182, 243, 60, 0, 121, 182, 60, 243, 182, 182, 243, 60, 60, 182, 0, 182, 243, 121, 60, 121, 60, 60, 121, 121, 121, 121, 0, 60, 182, 121, 182, 60, 121, 182, 121, 60, 121, 60, 60, 182, 182, 60, 60, 121, 60, 60, 121, 182, 60, 0, 121, 60, 243, 121, 60, 182, 182, 0, 182, 0, 121, 121, 182, 60, 121, 121, 121, 182, 60, 60, 182, 121, 0, 182, 243, 243, 182, 60, 121, 121, 60, 121, 243, 60, 60, 121, 121, 182, 60, 60, 182, 243, 121, 60, 182, 0, 304, 243, 0, 243, 243, 60, 243, 60, 182, 121, 243, 121, 182, 121, 304, 304, 182, 182, 182, 243, 243, 304, 0, 121, 304, 243, 121, 243, 182, 243, 243, 304, 243, 182, 121, 121, 182, 182, 182, 182, 60, 121, 243, 243, 121, 0, 243, 243, 121, 121, 182, 121, 121, 243, 243, 121, 121, 182, 60, 60, 182, 243, 121, 60, 182, 0, 304, 243, 0, 243, 243, 60, 243, 60, 182, 121, 243, 121, 182, 121, 182, 243, 60, 60, 182, 182, 60, 243, 243, 243, 243, 0, 121, 182, 60, 182, 304, 121, 0, 121, 121, 60, 182, 243, 60, 60, 121, 182, 121, 243, 121, 121, 243, 121, 0, 182, 60, 182, 182, 121, 121, 121, 60, 121, 60, 60, 121, 182, 60, 0, 121, 60, 243, 121, 60, 182, 182, 0, 182, 0, 121, 121, 182, 60, 121, 60, 182, 243, 60, 0, 121, 182, 60, 243, 182, 182, 243, 60, 60, 182, 0, 182, 243, 121, 60, 121, 60, 121, 60, 60, 121, 182, 60, 0, 121, 60, 243, 121, 60, 182, 182, 0, 182, 0, 121, 121, 182, 60, 121, 121, 182, 121, 182, 243, 60, 121, 243, 182, 243, 121, 182, 304, 182, 121, 243, 121, 0, 243, 304, 121, 121, 121, 60, 121, 60, 121, 182, 121, 60, 121, 304, 243, 121, 121, 121, 121, 121, 121, 243, 0, 121, 121, 121, 121, 182, 243, 60, 60, 182, 182, 60, 243, 243, 243, 243, 0, 121, 182, 60, 182, 304, 121, 0, 121, 121, 60, 60, 121, 60, 121, 60, 60, 121, 121, 182, 121, 121, 121, 121, 60, 121, 60, 121, 121, 121, 0, 60, 0, 121, 182, 60, 60, 60, 121, 121, 182, 121, 121, 182, 121, 60, 121, 60, 121, 121, 121, 121, 60, 0, 0, 129, 193, 64, 64, 64, 129, 129, 193, 129, 129, 193, 129, 64, 129, 64, 129, 129, 129, 129, 64, 0, 129, 0, 64, 129, 193, 129, 64, 129, 64, 322, 193, 64, 193, 193, 64, 193, 64, 193, 64, 193, 64, 129, 193, 64, 0, 193, 258, 129, 64, 193, 64, 322, 193, 64, 258, 258, 64, 258, 64, 129, 129, 258, 129, 193, 64, 129, 193, 0, 64, 129, 129, 64, 193, 193, 193, 193, 64, 64, 129, 64, 129, 193, 64, 64, 64, 64, 64, 193, 258, 64, 0, 129, 193, 64, 258, 193, 193, 258, 64, 64, 193, 0, 193, 258, 129, 64, 129, 64, 64, 129, 129, 129, 129, 0, 64, 193, 129, 193, 64, 129, 193, 129, 64, 129, 64, 64, 193, 193, 64, 64, 129, 64, 64, 129, 193, 64, 0, 129, 64, 258, 129, 64, 193, 193, 0, 193, 0, 129, 129, 193, 64, 129, 129, 129, 193, 64, 64, 193, 129, 0, 193, 258, 258, 193, 64, 129, 129, 64, 129, 258, 64, 64, 129, 129, 193, 64, 64, 193, 258, 129, 64, 193, 0, 322, 258, 0, 258, 258, 64, 258, 64, 193, 129, 258, 129, 193, 129, 322, 322, 193, 193, 193, 258, 258, 322, 0, 129, 322, 258, 129, 258, 193, 258, 258, 322, 258, 193, 129, 129, 193, 193, 193, 193, 64, 129, 258, 258, 129, 0, 258, 258, 129, 129, 193, 129, 129, 258, 258, 129, 129, 193, 64, 64, 193, 258, 129, 64, 193, 0, 322, 258, 0, 258, 258, 64, 258, 64, 193, 129, 258, 129, 193, 129, 193, 258, 64, 64, 193, 193, 64, 258, 258, 258, 258, 0, 129, 193, 64, 193, 322, 129, 0, 129, 129, 64, 193, 258, 64, 64, 129, 193, 129, 258, 129, 129, 258, 129, 0, 193, 64, 193, 193, 129, 129, 129, 64, 129, 64, 64, 129, 193, 64, 0, 129, 64, 258, 129, 64, 193, 193, 0, 193, 0, 129, 129, 193, 64, 129, 64, 193, 258, 64, 0, 129, 193, 64, 258, 193, 193, 258, 64, 64, 193, 0, 193, 258, 129, 64, 129, 64, 129, 64, 64, 129, 193, 64, 0, 129, 64, 258, 129, 64, 193, 193, 0, 193, 0, 129, 129, 193, 64, 129, 129, 193, 129, 193, 258, 64, 129, 258, 193, 258, 129, 193, 322, 193, 129, 258, 129, 0, 258, 322, 129, 129, 129, 64, 129, 64, 129, 193, 129, 64, 129, 322, 258, 129, 129, 129, 129, 129, 129, 258, 0, 129, 129, 129, 129, 193, 258, 64, 64, 193, 193, 64, 258, 258, 258, 258, 0, 129, 193, 64, 193, 322, 129, 0, 129, 129, 64, 64, 129, 64, 129, 64, 64, 129, 129, 193, 129, 129, 129, 129, 64, 129, 64, 129, 129, 129, 0, 64, 0, 129, 193, 64, 64, 64, 129, 129, 193, 129, 129, 193, 129, 64, 129, 64, 129, 129, 129, 129, 64, 0, 0, 136, 204, 68, 68, 68, 136, 136, 204, 136, 136, 204, 136, 68, 136, 68, 136, 136, 136, 136, 68, 0, 136, 0, 68, 136, 204, 136, 68, 136, 68, 341, 204, 68, 204, 204, 68, 204, 68, 204, 68, 204, 68, 136, 204, 68, 0, 204, 272, 136, 68, 204, 68, 341, 204, 68, 272, 272, 68, 272, 68, 136, 136, 272, 136, 204, 68, 136, 204, 0, 68, 136, 136, 68, 204, 204, 204, 204, 68, 68, 136, 68, 136, 204, 68, 68, 68, 68, 68, 204, 272, 68, 0, 136, 204, 68, 272, 204, 204, 272, 68, 68, 204, 0, 204, 272, 136, 68, 136, 68, 68, 136, 136, 136, 136, 0, 68, 204, 136, 204, 68, 136, 204, 136, 68, 136, 68, 68, 204, 204, 68, 68, 136, 68, 68, 136, 204, 68, 0, 136, 68, 272, 136, 68, 204, 204, 0, 204, 0, 136, 136, 204, 68, 136, 136, 136, 204, 68, 68, 204, 136, 0, 204, 272, 272, 204, 68, 136, 136, 68, 136, 272, 68, 68, 136, 136, 204, 68, 68, 204, 272, 136, 68, 204, 0, 341, 272, 0, 272, 272, 68, 272, 68, 204, 136, 272, 136, 204, 136, 341, 341, 204, 204, 204, 272, 272, 341, 0, 136, 341, 272, 136, 272, 204, 272, 272, 341, 272, 204, 136, 136, 204, 204, 204, 204, 68, 136, 272, 272, 136, 0, 272, 272, 136, 136, 204, 136, 136, 272, 272, 136, 136, 204, 68, 68, 204, 272, 136, 68, 204, 0, 341, 272, 0, 272, 272, 68, 272, 68, 204, 136, 272, 136, 204, 136, 204, 272, 68, 68, 204, 204, 68, 272, 272, 272, 272, 0, 136, 204, 68, 204, 341, 136, 0, 136, 136, 68, 204, 272, 68, 68, 136, 204, 136, 272, 136, 136, 272, 136, 0, 204, 68, 204, 204, 136, 136, 136, 68, 136, 68, 68, 136, 204, 68, 0, 136, 68, 272, 136, 68, 204, 204, 0, 204, 0, 136, 136, 204, 68, 136, 68, 204, 272, 68, 0, 136, 204, 68, 272, 204, 204, 272, 68, 68, 204, 0, 204, 272, 136, 68, 136, 68, 136, 68, 68, 136, 204, 68, 0, 136, 68, 272, 136, 68, 204, 204, 0, 204, 0, 136, 136, 204, 68, 136, 136, 204, 136, 204, 272, 68, 136, 272, 204, 272, 136, 204, 341, 204, 136, 272, 136, 0, 272, 341, 136, 136, 136, 68, 136, 68, 136, 204, 136, 68, 136, 341, 272, 136, 136, 136, 136, 136, 136, 272, 0, 136, 136, 136, 136, 204, 272, 68, 68, 204, 204, 68, 272, 272, 272, 272, 0, 136, 204, 68, 204, 341, 136, 0, 136, 136, 68, 68, 136, 68, 136, 68, 68, 136, 136, 204, 136, 136, 136, 136, 68, 136, 68, 136, 136, 136, 0, 68, 0, 136, 204, 68, 68, 68, 136, 136, 204, 136, 136, 204, 136, 68, 136, 68, 136, 136, 136, 136, 68, 0]);
t_emission = array3d(0..21,0..21,0..2,[0, 276, 414, 138, 138, 138, 276, 276, 414, 276, 276, 414, 276, 138, 276, 138, 276, 276, 276, 276, 138, 0, 276, 0, 138, 276, 414, 276, 138, 276, 138, 690, 414, 138, 414, 414, 138, 414, 138, 414, 138, 414, 138, 276, 414, 138, 0, 414, 552, 276, 138, 414, 138, 690, 414, 138, 552, 552, 138, 552, 138, 276, 276, 552, 276, 414, 138, 276, 414, 0, 138, 276, 276, 138, 414, 414, 414, 414, 138, 138, 276, 138, 276, 414, 138, 138, 138, 138, 138, 414, 552, 138, 0, 276, 414, 138, 552, 414, 414, 552, 138, 138, 414, 0, 414, 552, 276, 138, 276, 138, 138, 276, 276, 276, 276, 0, 138, 414, 276, 414, 138, 276, 414, 276, 138, 276, 138, 138, 414, 414, 138, 138, 276, 138, 138, 276, 414, 138, 0, 276, 138, 552, 276, 138, 414, 414, 0, 414, 0, 276, 276, 414, 138, 276, 276, 276, 414, 138, 138, 414, 276, 0, 414, 552, 552, 414, 138, 276, 276, 138, 276, 552, 138, 138, 276, 276, 414, 138, 138, 414, 552, 276, 138, 414, 0, 690, 552, 0, 552, 552, 138, 552, 138, 414, 276, 552, 276, 414, 276, 690, 690, 414, 414, 414, 552, 552, 690, 0, 276, 690, 552, 276, 552, 414, 552, 552, 690, 552, 414, 276, 276, 414, 414, 414, 414, 138, 276, 552, 552, 276, 0, 552, 552, 276, 276, 414, 276, 276, 552, 552, 276, 276, 414, 138, 138, 414, 552, 276, 138, 414, 0, 690, 552, 0, 552, 552, 138, 552, 138, 414, 276, 552, 276, 414, 276, 414, 552, 138, 138, 414, 414, 138, 552, 552, 552, 552, 0, 276, 414, 138, 414, 690, 276, 0, 276, 276, 138, 414, 552, 138, 138, 276, 414, 276, 552, 276, 276, 552, 276, 0, 414, 138, 414, 414, 276, 276, 276, 138, 276, 138, 138, 276, 414, 138, 0, 276, 138, 552, 276, 138, 414, 414, 0, 414, 0, 276, 276, 414, 138, 276, 138, 414, 552, 138, 0, 276, 414, 138, 552, 414, 414, 552, 138, 138, 414, 0, 414, 552, 276, 138, 276, 138, 276, 138, 138, 276, 414, 138, 0, 276, 138, 552, 276, 138, 414, 414, 0, 414, 0, 276, 276, 414, 138, 276, 276, 414, 276, 414, 552, 138, 276, 552, 414, 552, 276, 414, 690, 414, 276, 552, 276, 0, 552, 690, 276, 276, 276, 138, 276, 138, 276, 414, 276, 138, 276, 690, 552, 276, 276, 276, 276, 276, 276, 552, 0, 276, 276, 276, 276, 414, 552, 138, 138, 414, 414, 138, 552, 552, 552, 552, 0, 276, 414, 138, 414, 690, 276, 0, 276, 276, 138, 138, 276, 138, 276, 138, 138, 276, 276, 414, 276, 276, 276, 276, 138, 276, 138, 276, 276, 276, 0, 138, 0, 276, 414, 138, 138, 138, 276, 276, 414, 276, 276, 414, 276, 138, 276, 138, 276, 276, 276, 276, 138, 0, 0, 368, 552, 184, 184, 184, 368, 368, 552, 368, 368, 552, 368, 184, 368, 184, 368, 368, 368, 368, 184, 0, 368, 0, 184, 368, 552, 368, 184, 368, 184, 920, 552, 184, 552, 552, 184, 552, 184, 552, 184, 552, 184, 368, 552, 184, 0, 552, 736, 368, 184, 552, 184, 920, 552, 184, 736, 736, 184, 736, 184, 368, 368, 736, 368, 552, 184, 368, 552, 0, 184, 368, 368, 184, 552, 552, 552, 552, 184, 184, 368, 184, 368, 552, 184, 184, 184, 184, 184, 552, 736, 184, 0, 368, 552, 184, 736, 552, 552, 736, 184, 184, 552, 0, 552, 736, 368, 184, 368, 184, 184, 368, 368, 368, 368, 0, 184, 552, 368, 552, 184, 368, 552, 368, 184, 368, 184, 184, 552, 552, 184, 184, 368, 184, 184, 368, 552, 184, 0, 368, 184, 736, 368, 184, 552, 552, 0, 552, 0, 368, 368, 552, 184, 368, 368, 368, 552, 184, 184, 552, 368, 0, 552, 736, 736, 552, 184, 368, 368, 184, 368, 736, 184, 184, 368, 368, 552, 184, 184, 552, 736, 368, 184, 552, 0, 920, 736, 0, 736, 736, 184, 736, 184, 552, 368, 736, 368, 552, 368, 920, 920, 552, 552, 552, 736, 736, 920, 0, 368, 920, 736, 368, 736, 552, 736, 736, 920, 736, 552, 368, 368, 552, 552, 552, 552, 184, 368, 736, 736, 368, 0, 736, 736, 368, 368, 552, 368, 368, 736, 736, 368, 368, 552, 184, 184, 552, 736, 368, 184, 552, 0, 920, 736, 0, 736, 736, 184, 736, 184, 552, 368, 736, 368, 552, 368, 552, 736, 184, 184, 552, 552, 184, 736, 736, 736, 736, 0, 368, 552, 184, 552, 920, 368, 0, 368, 368, 184, 552, 736, 184, 184, 368, 552, 368, 736, 368, 368, 736, 368, 0, 552, 184, 552, 552, 368, 368, 368, 184, 368, 184, 184, 368, 552, 184, 0, 368, 184, 736, 368, 184, 552, 552, 0, 552, 0, 368, 368, 552, 184, 368, 184, 552, 736, 184, 0, 368, 552, 184, 736, 552, 552, 736, 184, 184, 552, 0, 552, 736, 368, 184, 368, 184, 368, 184, 184, 368, 552, 184, 0, 368, 184, 736, 368, 184, 552, 552, 0, 552, 0, 368, 368, 552, 184, 368, 368, 552, 368, 552, 736, 184, 368, 736, 552, 736, 368, 552, 920, 552, 368, 736, 368, 0, 736, 920, 368, 368, 368, 184, 368, 184, 368, 552, 368, 184, 368, 920, 736, 368, 368, 368, 368, 368, 368, 736, 0, 368, 368, 368, 368, 552, 736, 184, 184, 552, 552, 184, 736, 736, 736, 736, 0, 368, 552, 184, 552, 920, 368, 0, 368, 368, 184, 184, 368, 184, 368, 184, 184, 368, 368, 552, 368, 368, 368, 368, 184, 368, 184, 368, 368, 368, 0, 184, 0, 368, 552, 184, 184, 184, 368, 368, 552, 368, 368, 552, 368, 184, 368, 184, 368, 368, 368, 368, 184, 0, 0, 460, 690, 230, 230, 230, 460, 460, 690, 460, 460, 690, 460, 230, 460, 230, 460, 460, 460, 460, 230, 0, 460, 0, 230, 460, 690, 460, 230, 460, 230, 1150, 690, 230, 690, 690, 230, 690, 230, 690, 230, 690, 230, 460, 690, 230, 0, 690, 920, 460, 230, 690, 230, 1150, 690, 230, 920, 920, 230, 920, 230, 460, 460, 920, 460, 690, 230, 460, 690, 0, 230, 460, 460, 230, 690, 690, 690, 690, 230, 230, 460, 230, 460, 690, 230, 230, 230, 230, 230, 690, 920, 230, 0, 460, 690, 230, 920, 690, 690, 920, 230, 230, 690, 0, 690, 920, 460, 230, 460, 230, 230, 460, 460, 460, 460, 0, 230, 690, 460, 690, 230, 460, 690, 460, 230, 460, 230, 230, 690, 690, 230, 230, 460, 230, 230, 460, 690, 230, 0, 460, 230, 920, 460, 230, 690, 690, 0, 690, 0, 460, 460, 690, 230, 460, 460, 460, 690, 230, 230, 690, 460, 0, 690, 920, 920, 690, 230, 460, 460, 230, 460, 920, 230, 230, 460, 460, 690, 230, 230, 690, 920, 460, 230, 690, 0, 1150, 920, 0, 920, 920, 230, 920, 230, 690, 460, 920, 460, 690, 460, 1150, 1150, 690, 690, 690, 920, 920, 1150, 0, 460, 1150, 920, 460, 920, 690, 920, 920, 1150, 920, 690, 460, 460, 690, 690, 690, 690, 230, 460, 920, 920, 460, 0, 920, 920, 460, 460, 690, 460, 460, 920, 920, 460, 460, 690, 230, 230, 690, 920, 460, 230, 690, 0, 1150, 920, 0, 920, 920, 230, 920, 230, 690, 460, 920, 460, 690, 460, 690, 920, 230, 230, 690, 690, 230, 920, 920, 920, 920, 0, 460, 690, 230, 690, 1150, 460, 0, 460, 460, 230, 690, 920, 230, 230, 460, 690, 460, 920, 460, 460, 920, 460, 0, 690, 230, 690, 690, 460, 460, 460, 230, 460, 230, 230, 460, 690, 230, 0, 460, 230, 920, 460, 230, 690, 690, 0, 690, 0, 460, 460, 690, 230, 460, 230, 690, 920, 230, 0, 460, 690, 230, 920, 690, 690, 920, 230, 230, 690, 0, 690, 920, 460, 230, 460, 230, 460, 230, 230, 460, 690, 230, 0, 460, 230, 920, 460, 230, 690, 690, 0, 690, 0, 460, 460, 690, 230, 460, 460, 690, 460, 690, 920, 230, 460, 920, 690, 920, 460, 690, 1150, 690, 460, 920, 460, 0, 920, 1150, 460, 460, 460, 230, 460, 230, 460, 690, 460, 230, 460, 1150, 920, 460, 460, 460, 460, 460, 460, 920, 0, 460, 460, 460, 460, 690, 920, 230, 230, 690, 690, 230, 920, 920, 920, 920, 0, 460, 690, 230, 690, 1150, 460, 0, 460, 460, 230, 230, 460, 230, 460, 230, 230, 460, 460, 690, 460, 460, 460, 460, 230, 460, 230, 460, 460, 460, 0, 230, 0, 460, 690, 230, 230, 230, 460, 460, 690, 460, 460, 690, 460, 230, 460, 230, 460, 460, 460, 460, 230, 0]);
